DIMENSION: 10
EDGE_WEIGHT_TYPE: EXPLICIT
EDGE_WEIGHT_FORMAT: FULL_MATRIX
EDGE_WEIGHT_SECTION:
32767 32767 32767 44 13 31 6 92 34 32767 
32767 32767 30 32767 90 32767 32767 56 5 75 
32767 30 32767 31 32767 32767 49 91 32767 73 
44 32767 31 32767 32767 32767 32767 9 99 75 
13 90 32767 32767 32767 14 25 32767 32767 9 
31 32767 32767 32767 14 32767 38 32767 68 32767 
6 32767 49 32767 25 38 32767 38 60 11 
92 56 91 9 32767 32767 38 32767 100 17 
34 5 32767 99 32767 68 60 100 32767 17 
32767 75 73 75 9 32767 11 17 17 32767 
EOF